c File: instances/14_0.70_3.col
c
c Description: Random graph of size 14 vertices and P(0.7000000000000001) of edges between any two vertices.
p col 14 91
e 1 3
e 1 4
e 1 5
e 1 7
e 1 9
e 1 12
e 1 14
e 2 5
e 2 6
e 2 7
e 2 8
e 2 9
e 2 11
e 2 13
e 2 14
e 3 4
e 3 5
e 3 7
e 3 8
e 3 11
e 3 13
e 3 14
e 4 5
e 4 6
e 4 7
e 4 10
e 4 12
e 5 7
e 5 9
e 5 10
e 5 11
e 5 12
e 5 13
e 6 7
e 6 8
e 6 10
e 6 12
e 6 14
e 7 8
e 7 9
e 7 12
e 7 14
e 8 10
e 8 11
e 8 12
e 8 13
e 8 14
e 9 11
e 9 12
e 9 13
e 10 12
e 10 13
e 11 12
e 11 13
e 11 14
e 13 14